50
100
96
94
91
90
82
81
80
77
76
75
74
72
70
68
65
63
63
63
60
60
59
58
57
55
51
47
46
36
36
34
32
32
30
30
28
28
27
26
24
24
19
19
17
17
11
9
9
7
4
4
